Version identifier: 20.1.0.0 | 2020-11-10 | 9bedb6d68
Tried aggregator 2 times.
MIP Presolve eliminated 1257 rows and 685 columns.
MIP Presolve modified 3158 coefficients.
Aggregator did 138 substitutions.
Reduced MIP has 1814 rows, 1392 columns, and 5958 nonzeros.
Reduced MIP has 237 binaries, 1155 generals, 0 SOSs, and 0 indicators.
Presolve time = 0.02 sec. (7.36 ticks)
Found incumbent of value 2708.000000 after 0.03 sec. (14.66 ticks)
Probing fixed 40 vars, tightened 452 bounds.
Probing time = 0.00 sec. (1.22 ticks)
Tried aggregator 1 time.
Detecting symmetries...
MIP Presolve eliminated 780 rows and 40 columns.
MIP Presolve modified 91 coefficients.
Reduced MIP has 1034 rows, 1352 columns, and 3378 nonzeros.
Reduced MIP has 341 binaries, 1011 generals, 0 SOSs, and 0 indicators.
Presolve time = 0.01 sec. (3.73 ticks)
Probing time = 0.00 sec. (0.25 ticks)
Clique table members: 5.
MIP emphasis: balance optimality and feasibility.
MIP search method: dynamic search.
Parallel mode: deterministic, using up to 24 threads.
Root relaxation solution time = 0.01 sec. (2.62 ticks)

        Nodes                                         Cuts/
   Node  Left     Objective  IInf  Best Integer    Best Bound    ItCnt     Gap

*     0+    0                         2708.0000        0.0000           100.00%
*     0+    0                           45.0000        0.0000           100.00%
      0     0        0.0000    48       45.0000        0.0000      298  100.00%
*     0+    0                            9.0000        0.0000           100.00%
      0     0        0.0000    83        9.0000     Cuts: 118      383  100.00%
      0     0        0.1111    64        9.0000      Cuts: 84      539   98.77%
      0     0        0.3636   284        9.0000      Cuts: 49      662   95.96%
      0     0        0.3636    72        9.0000      Cuts: 74      737   95.96%
      0     0        0.3636   136        9.0000      Cuts: 31      790   95.96%
*     0+    0                            7.0000        0.3636            94.81%
      0     0        cutoff              7.0000        7.0000      790    0.00%
Elapsed time = 2.16 sec. (131.68 ticks, tree = 0.01 MB, solutions = 4)

Implied bound cuts applied:  38
Flow cuts applied:  9
Mixed integer rounding cuts applied:  4
Zero-half cuts applied:  71
Lift and project cuts applied:  3
Gomory fractional cuts applied:  5

Root node processing (before b&c):
  Real time             =    2.16 sec. (131.80 ticks)
Parallel b&c, 24 threads:
  Real time             =    0.00 sec. (0.00 ticks)
  Sync time (average)   =    0.00 sec.
  Wait time (average)   =    0.00 sec.
                          ------------
Total (root+branch&cut) =    2.16 sec. (131.80 ticks)

Solution status = Optimal
Solution LB = 7
Solution UB = 7
Runtime = 2.16899 seconds
	Command being timed: "/home/min/git_repos/CS598MEBProject/CNT-ILP/build/cnt -s 2 ./output/k8_n20/simC_c1_k8_n20_u1_s3_del02.input-left.cnp"
	User time (seconds): 32.98
	System time (seconds): 0.11
	Percent of CPU this job got: 1494%
	Elapsed (wall clock) time (h:mm:ss or m:ss): 0:02.21
	Average shared text size (kbytes): 0
	Average unshared data size (kbytes): 0
	Average stack size (kbytes): 0
	Average total size (kbytes): 0
	Maximum resident set size (kbytes): 96700
	Average resident set size (kbytes): 0
	Major (requiring I/O) page faults: 0
	Minor (reclaiming a frame) page faults: 30102
	Voluntary context switches: 5730
	Involuntary context switches: 4383
	Swaps: 0
	File system inputs: 0
	File system outputs: 16
	Socket messages sent: 0
	Socket messages received: 0
	Signals delivered: 0
	Page size (bytes): 4096
	Exit status: 0
